(set-logic QF_LRA)
(declare-fun X0 () Real )
(declare-fun Y0 () Real )
(declare-fun X1 () Real )
(declare-fun Y1 () Real )
(declare-fun X2 () Real )
(declare-fun Y2 () Real )
(declare-fun X3 () Real )
(declare-fun Y3 () Real )
(declare-fun X4 () Real )
(declare-fun Y4 () Real )
(declare-fun X5 () Real )
(declare-fun Y5 () Real )
(declare-fun X6 () Real )
(declare-fun Y6 () Real )
(declare-fun X7 () Real )
(declare-fun Y7 () Real )
(declare-fun X8 () Real )
(declare-fun Y8 () Real )
(declare-fun X9 () Real )
(declare-fun Y9 () Real )
(declare-fun X10 () Real )
(declare-fun Y10 () Real )
(declare-fun X11 () Real )
(declare-fun Y11 () Real )
(declare-fun Z () Real )
(assert ( and  
( or ( <= ( + X0 6 ) X1 )  ( <= ( + X1 22 ) X0 )  ( <= ( + Y0 48 ) Y1 )  ( <= ( + Y1 15 ) Y0 )  )
( or ( <= ( + X0 6 ) X2 )  ( <= ( + X2 87 ) X0 )  ( <= ( + Y0 48 ) Y2 )  ( <= ( + Y2 37 ) Y0 )  )
( or ( <= ( + X0 6 ) X3 )  ( <= ( + X3 2 ) X0 )  ( <= ( + Y0 48 ) Y3 )  ( <= ( + Y3 49 ) Y0 )  )
( or ( <= ( + X0 6 ) X4 )  ( <= ( + X4 17 ) X0 )  ( <= ( + Y0 48 ) Y4 )  ( <= ( + Y4 22 ) Y0 )  )
( or ( <= ( + X0 6 ) X5 )  ( <= ( + X5 50 ) X0 )  ( <= ( + Y0 48 ) Y5 )  ( <= ( + Y5 99 ) Y0 )  )
( or ( <= ( + X0 6 ) X6 )  ( <= ( + X6 54 ) X0 )  ( <= ( + Y0 48 ) Y6 )  ( <= ( + Y6 66 ) Y0 )  )
( or ( <= ( + X0 6 ) X7 )  ( <= ( + X7 92 ) X0 )  ( <= ( + Y0 48 ) Y7 )  ( <= ( + Y7 96 ) Y0 )  )
( or ( <= ( + X0 6 ) X8 )  ( <= ( + X8 73 ) X0 )  ( <= ( + Y0 48 ) Y8 )  ( <= ( + Y8 14 ) Y0 )  )
( or ( <= ( + X0 6 ) X9 )  ( <= ( + X9 98 ) X0 )  ( <= ( + Y0 48 ) Y9 )  ( <= ( + Y9 62 ) Y0 )  )
( or ( <= ( + X0 6 ) X10 )  ( <= ( + X10 82 ) X0 )  ( <= ( + Y0 48 ) Y10 )  ( <= ( + Y10 94 ) Y0 )  )
( or ( <= ( + X0 6 ) X11 )  ( <= ( + X11 31 ) X0 )  ( <= ( + Y0 48 ) Y11 )  ( <= ( + Y11 76 ) Y0 )  )
( or ( <= ( + X1 22 ) X2 )  ( <= ( + X2 87 ) X1 )  ( <= ( + Y1 15 ) Y2 )  ( <= ( + Y2 37 ) Y1 )  )
( or ( <= ( + X1 22 ) X3 )  ( <= ( + X3 2 ) X1 )  ( <= ( + Y1 15 ) Y3 )  ( <= ( + Y3 49 ) Y1 )  )
( or ( <= ( + X1 22 ) X4 )  ( <= ( + X4 17 ) X1 )  ( <= ( + Y1 15 ) Y4 )  ( <= ( + Y4 22 ) Y1 )  )
( or ( <= ( + X1 22 ) X5 )  ( <= ( + X5 50 ) X1 )  ( <= ( + Y1 15 ) Y5 )  ( <= ( + Y5 99 ) Y1 )  )
( or ( <= ( + X1 22 ) X6 )  ( <= ( + X6 54 ) X1 )  ( <= ( + Y1 15 ) Y6 )  ( <= ( + Y6 66 ) Y1 )  )
( or ( <= ( + X1 22 ) X7 )  ( <= ( + X7 92 ) X1 )  ( <= ( + Y1 15 ) Y7 )  ( <= ( + Y7 96 ) Y1 )  )
( or ( <= ( + X1 22 ) X8 )  ( <= ( + X8 73 ) X1 )  ( <= ( + Y1 15 ) Y8 )  ( <= ( + Y8 14 ) Y1 )  )
( or ( <= ( + X1 22 ) X9 )  ( <= ( + X9 98 ) X1 )  ( <= ( + Y1 15 ) Y9 )  ( <= ( + Y9 62 ) Y1 )  )
( or ( <= ( + X1 22 ) X10 )  ( <= ( + X10 82 ) X1 )  ( <= ( + Y1 15 ) Y10 )  ( <= ( + Y10 94 ) Y1 )  )
( or ( <= ( + X1 22 ) X11 )  ( <= ( + X11 31 ) X1 )  ( <= ( + Y1 15 ) Y11 )  ( <= ( + Y11 76 ) Y1 )  )
( or ( <= ( + X2 87 ) X3 )  ( <= ( + X3 2 ) X2 )  ( <= ( + Y2 37 ) Y3 )  ( <= ( + Y3 49 ) Y2 )  )
( or ( <= ( + X2 87 ) X4 )  ( <= ( + X4 17 ) X2 )  ( <= ( + Y2 37 ) Y4 )  ( <= ( + Y4 22 ) Y2 )  )
( or ( <= ( + X2 87 ) X5 )  ( <= ( + X5 50 ) X2 )  ( <= ( + Y2 37 ) Y5 )  ( <= ( + Y5 99 ) Y2 )  )
( or ( <= ( + X2 87 ) X6 )  ( <= ( + X6 54 ) X2 )  ( <= ( + Y2 37 ) Y6 )  ( <= ( + Y6 66 ) Y2 )  )
( or ( <= ( + X2 87 ) X7 )  ( <= ( + X7 92 ) X2 )  ( <= ( + Y2 37 ) Y7 )  ( <= ( + Y7 96 ) Y2 )  )
( or ( <= ( + X2 87 ) X8 )  ( <= ( + X8 73 ) X2 )  ( <= ( + Y2 37 ) Y8 )  ( <= ( + Y8 14 ) Y2 )  )
( or ( <= ( + X2 87 ) X9 )  ( <= ( + X9 98 ) X2 )  ( <= ( + Y2 37 ) Y9 )  ( <= ( + Y9 62 ) Y2 )  )
( or ( <= ( + X2 87 ) X10 )  ( <= ( + X10 82 ) X2 )  ( <= ( + Y2 37 ) Y10 )  ( <= ( + Y10 94 ) Y2 )  )
( or ( <= ( + X2 87 ) X11 )  ( <= ( + X11 31 ) X2 )  ( <= ( + Y2 37 ) Y11 )  ( <= ( + Y11 76 ) Y2 )  )
( or ( <= ( + X3 2 ) X4 )  ( <= ( + X4 17 ) X3 )  ( <= ( + Y3 49 ) Y4 )  ( <= ( + Y4 22 ) Y3 )  )
( or ( <= ( + X3 2 ) X5 )  ( <= ( + X5 50 ) X3 )  ( <= ( + Y3 49 ) Y5 )  ( <= ( + Y5 99 ) Y3 )  )
( or ( <= ( + X3 2 ) X6 )  ( <= ( + X6 54 ) X3 )  ( <= ( + Y3 49 ) Y6 )  ( <= ( + Y6 66 ) Y3 )  )
( or ( <= ( + X3 2 ) X7 )  ( <= ( + X7 92 ) X3 )  ( <= ( + Y3 49 ) Y7 )  ( <= ( + Y7 96 ) Y3 )  )
( or ( <= ( + X3 2 ) X8 )  ( <= ( + X8 73 ) X3 )  ( <= ( + Y3 49 ) Y8 )  ( <= ( + Y8 14 ) Y3 )  )
( or ( <= ( + X3 2 ) X9 )  ( <= ( + X9 98 ) X3 )  ( <= ( + Y3 49 ) Y9 )  ( <= ( + Y9 62 ) Y3 )  )
( or ( <= ( + X3 2 ) X10 )  ( <= ( + X10 82 ) X3 )  ( <= ( + Y3 49 ) Y10 )  ( <= ( + Y10 94 ) Y3 )  )
( or ( <= ( + X3 2 ) X11 )  ( <= ( + X11 31 ) X3 )  ( <= ( + Y3 49 ) Y11 )  ( <= ( + Y11 76 ) Y3 )  )
( or ( <= ( + X4 17 ) X5 )  ( <= ( + X5 50 ) X4 )  ( <= ( + Y4 22 ) Y5 )  ( <= ( + Y5 99 ) Y4 )  )
( or ( <= ( + X4 17 ) X6 )  ( <= ( + X6 54 ) X4 )  ( <= ( + Y4 22 ) Y6 )  ( <= ( + Y6 66 ) Y4 )  )
( or ( <= ( + X4 17 ) X7 )  ( <= ( + X7 92 ) X4 )  ( <= ( + Y4 22 ) Y7 )  ( <= ( + Y7 96 ) Y4 )  )
( or ( <= ( + X4 17 ) X8 )  ( <= ( + X8 73 ) X4 )  ( <= ( + Y4 22 ) Y8 )  ( <= ( + Y8 14 ) Y4 )  )
( or ( <= ( + X4 17 ) X9 )  ( <= ( + X9 98 ) X4 )  ( <= ( + Y4 22 ) Y9 )  ( <= ( + Y9 62 ) Y4 )  )
( or ( <= ( + X4 17 ) X10 )  ( <= ( + X10 82 ) X4 )  ( <= ( + Y4 22 ) Y10 )  ( <= ( + Y10 94 ) Y4 )  )
( or ( <= ( + X4 17 ) X11 )  ( <= ( + X11 31 ) X4 )  ( <= ( + Y4 22 ) Y11 )  ( <= ( + Y11 76 ) Y4 )  )
( or ( <= ( + X5 50 ) X6 )  ( <= ( + X6 54 ) X5 )  ( <= ( + Y5 99 ) Y6 )  ( <= ( + Y6 66 ) Y5 )  )
( or ( <= ( + X5 50 ) X7 )  ( <= ( + X7 92 ) X5 )  ( <= ( + Y5 99 ) Y7 )  ( <= ( + Y7 96 ) Y5 )  )
( or ( <= ( + X5 50 ) X8 )  ( <= ( + X8 73 ) X5 )  ( <= ( + Y5 99 ) Y8 )  ( <= ( + Y8 14 ) Y5 )  )
( or ( <= ( + X5 50 ) X9 )  ( <= ( + X9 98 ) X5 )  ( <= ( + Y5 99 ) Y9 )  ( <= ( + Y9 62 ) Y5 )  )
( or ( <= ( + X5 50 ) X10 )  ( <= ( + X10 82 ) X5 )  ( <= ( + Y5 99 ) Y10 )  ( <= ( + Y10 94 ) Y5 )  )
( or ( <= ( + X5 50 ) X11 )  ( <= ( + X11 31 ) X5 )  ( <= ( + Y5 99 ) Y11 )  ( <= ( + Y11 76 ) Y5 )  )
( or ( <= ( + X6 54 ) X7 )  ( <= ( + X7 92 ) X6 )  ( <= ( + Y6 66 ) Y7 )  ( <= ( + Y7 96 ) Y6 )  )
( or ( <= ( + X6 54 ) X8 )  ( <= ( + X8 73 ) X6 )  ( <= ( + Y6 66 ) Y8 )  ( <= ( + Y8 14 ) Y6 )  )
( or ( <= ( + X6 54 ) X9 )  ( <= ( + X9 98 ) X6 )  ( <= ( + Y6 66 ) Y9 )  ( <= ( + Y9 62 ) Y6 )  )
( or ( <= ( + X6 54 ) X10 )  ( <= ( + X10 82 ) X6 )  ( <= ( + Y6 66 ) Y10 )  ( <= ( + Y10 94 ) Y6 )  )
( or ( <= ( + X6 54 ) X11 )  ( <= ( + X11 31 ) X6 )  ( <= ( + Y6 66 ) Y11 )  ( <= ( + Y11 76 ) Y6 )  )
( or ( <= ( + X7 92 ) X8 )  ( <= ( + X8 73 ) X7 )  ( <= ( + Y7 96 ) Y8 )  ( <= ( + Y8 14 ) Y7 )  )
( or ( <= ( + X7 92 ) X9 )  ( <= ( + X9 98 ) X7 )  ( <= ( + Y7 96 ) Y9 )  ( <= ( + Y9 62 ) Y7 )  )
( or ( <= ( + X7 92 ) X10 )  ( <= ( + X10 82 ) X7 )  ( <= ( + Y7 96 ) Y10 )  ( <= ( + Y10 94 ) Y7 )  )
( or ( <= ( + X7 92 ) X11 )  ( <= ( + X11 31 ) X7 )  ( <= ( + Y7 96 ) Y11 )  ( <= ( + Y11 76 ) Y7 )  )
( or ( <= ( + X8 73 ) X9 )  ( <= ( + X9 98 ) X8 )  ( <= ( + Y8 14 ) Y9 )  ( <= ( + Y9 62 ) Y8 )  )
( or ( <= ( + X8 73 ) X10 )  ( <= ( + X10 82 ) X8 )  ( <= ( + Y8 14 ) Y10 )  ( <= ( + Y10 94 ) Y8 )  )
( or ( <= ( + X8 73 ) X11 )  ( <= ( + X11 31 ) X8 )  ( <= ( + Y8 14 ) Y11 )  ( <= ( + Y11 76 ) Y8 )  )
( or ( <= ( + X9 98 ) X10 )  ( <= ( + X10 82 ) X9 )  ( <= ( + Y9 62 ) Y10 )  ( <= ( + Y10 94 ) Y9 )  )
( or ( <= ( + X9 98 ) X11 )  ( <= ( + X11 31 ) X9 )  ( <= ( + Y9 62 ) Y11 )  ( <= ( + Y11 76 ) Y9 )  )
( or ( <= ( + X10 82 ) X11 )  ( <= ( + X11 31 ) X10 )  ( <= ( + Y10 94 ) Y11 )  ( <= ( + Y11 76 ) Y10 )  )
( >= X0 0)
( <= ( + X0 6) Z)
( >= Y0 0)
( <= ( + Y0 48 ) 100)
( >= X1 0)
( <= ( + X1 22) Z)
( >= Y1 0)
( <= ( + Y1 15 ) 100)
( >= X2 0)
( <= ( + X2 87) Z)
( >= Y2 0)
( <= ( + Y2 37 ) 100)
( >= X3 0)
( <= ( + X3 2) Z)
( >= Y3 0)
( <= ( + Y3 49 ) 100)
( >= X4 0)
( <= ( + X4 17) Z)
( >= Y4 0)
( <= ( + Y4 22 ) 100)
( >= X5 0)
( <= ( + X5 50) Z)
( >= Y5 0)
( <= ( + Y5 99 ) 100)
( >= X6 0)
( <= ( + X6 54) Z)
( >= Y6 0)
( <= ( + Y6 66 ) 100)
( >= X7 0)
( <= ( + X7 92) Z)
( >= Y7 0)
( <= ( + Y7 96 ) 100)
( >= X8 0)
( <= ( + X8 73) Z)
( >= Y8 0)
( <= ( + Y8 14 ) 100)
( >= X9 0)
( <= ( + X9 98) Z)
( >= Y9 0)
( <= ( + Y9 62 ) 100)
( >= X10 0)
( <= ( + X10 82) Z)
( >= Y10 0)
( <= ( + Y10 94 ) 100)
( >= X11 0)
( <= ( + X11 31) Z)
( >= Y11 0)
( <= ( + Y11 76 ) 100)
) )
(minimize Z)
(check-sat)
